DATASET = "thpack6";
INSTANCE = "058";

WIDTH = 233;
HEIGHT = 220;
LENGTH = 587;

NO_OF_SHAPES = 15;
size = [|
  105,81,46 |
  115,81,61 |
  72,51,23 |
  65,56,33 |
  60,44,21 |
  85,69,65 |
  90,82,35 |
  115,94,64 |
  80,53,33 |
  95,81,37 |
  66,46,45 |
  109,36,25 |
  89,62,50 |
  54,32,27 |
  79,33,32 |
|];

verticality = [|
  0,1,1 |
  1,1,1 |
  0,0,1 |
  1,1,1 |
  0,0,1 |
  1,1,1 |
  0,0,1 |
  1,1,1 |
  0,1,1 |
  0,0,1 |
  1,1,1 |
  0,1,1 |
  1,1,1 |
  0,1,1 |
  0,1,1 |
|];

box_count = [
  18,
  6,
  6,
  8,
  6,
  6,
  10,
  8,
  3,
  10,
  9,
  7,
  4,
  5,
  10,
];
